W=5;
H=7;

MAX_TIME=W*H;
MAX_TRACKS=17;

TARGET=(4,5);

TRAINS=[(1,3,DOWN),(4,4,LEFT),(7,3,TOP),(4,2,LEFT)];
DECOYS=[];

INIT_POS=[
(1,3,STRAIGHT_TD),
(4,2,STRAIGHT_RL),
(4,4,STRAIGHT_RL),
(4,5,STRAIGHT_RL),
(7,3,STRAIGHT_TD),
];
TUNNEL_PAIRS=[];

GATES=[];
ACTIVATIONS=[];

DSWITCHES=[];
STATIONS=[];
